results/x-long/X-n143-k7.vrp_seed-44.out
15700	1105
