results/x-long/X-n143-k7.vrp_seed-44.vrp.sol
Route #1: 130 71 99 24 106 27 15 141 140 69 131 42 29 39 80 119 22 77 122 37 14 82 142 35 25
Route #2: 36 16 32 7 19 97 120 85 91 56 83 28 133 18 90 45 89 12 54 118 128
Route #3: 73 57 95 139 55 137 123 125 33 21 23 132 104 62 96 47 81 100 11 74 44 64 61 65
Route #4: 68 84 127 13 126
Route #5: 4 48 87 30 121 34 138 105 129 76 3 94 75 26 112 63 113 10 103 38 134 92 108 117
Route #6: 115 124 70 40 59 135 58 67 46 101 66 20 52 88 51 49 50 9 109
Route #7: 136 116 17 93 5 107 1 111 72 60 79 98 31 6 102 53 110 114 43 8 86 41 2 78
Cost 15700.000000